%%
% Autogenerated by /opt/prj/battleships-ai/src/server/solver.py, instance 0 6x6 [4] #4 <j4y>
% Source: https://www.puzzle-battleships.com/?size=0
%%

size = 6;
hints_num = 1;
hints = [| 2, 5 |];
ships_num = 6;

constr_rows = [1, 3, 1, 4, 0, 1];
constr_cols = [3, 0, 2, 3, 1, 1];

given_ships = [|
<>, <>, <>, <>, 1, |
<>, <>, <>, <>, 1, |
<>, <>, <>, <>, 1, |
<>, <>, <>, <>, 2, |
<>, <>, <>, <>, 2, |
<>, <>, <>, <>, 3  |];

